COPT Learning/diet problem/diet_advanced.lp
\Generated by Cardinal Operations

Minimize
   3.19 C(BEEF) + 2.59 C(CHK) + 2.29 C(FISH) + 2.89 C(HAM) + 1.89 C(MCH) 
   + 1.99 C(MTL) + 1.99 C(SPG) + 2.49 C(TUR) 
Subject To
 R(Vitamin_A): 60 C(BEEF) + 8 C(CHK) + 8 C(FISH) + 40 C(HAM) + 15 C(MCH) 
   + 70 C(MTL) + 25 C(SPG) + 60 C(TUR) >= 700
 R(Vitamin_C): 20 C(BEEF) + 10 C(FISH) + 40 C(HAM) + 35 C(MCH) + 30 C(MTL) 
   + 50 C(SPG) + 20 C(TUR) >= 700
 R(Vitamin_B1): 10 C(BEEF) + 20 C(CHK) + 15 C(FISH) + 35 C(HAM) + 15 C(MCH) 
   + 15 C(MTL) + 25 C(SPG) + 15 C(TUR) >= 700
 R(Vitamin_B2): 15 C(BEEF) + 20 C(CHK) + 10 C(FISH) + 10 C(HAM) + 15 C(MCH) 
   + 15 C(MTL) + 15 C(SPG) + 10 C(TUR) >= 700
 60 C(BEEF) + 8 C(CHK) + 8 C(FISH) + 40 C(HAM) + 15 C(MCH) + 70 C(MTL) 
   + 25 C(SPG) + 60 C(TUR) <= 10000
 20 C(BEEF) + 10 C(FISH) + 40 C(HAM) + 35 C(MCH) + 30 C(MTL) + 50 C(SPG) 
   + 20 C(TUR) <= 10000
 10 C(BEEF) + 20 C(CHK) + 15 C(FISH) + 35 C(HAM) + 15 C(MCH) + 15 C(MTL) 
   + 25 C(SPG) + 15 C(TUR) <= 10000
 15 C(BEEF) + 20 C(CHK) + 10 C(FISH) + 10 C(HAM) + 15 C(MCH) + 15 C(MTL) 
   + 15 C(SPG) + 10 C(TUR) <= 10000
END

