COPT Learning/diet problem/diet_advanced.mps
NAME          COPTPROB
OBJSENSE
    MIN
ROWS
 N  __OBJ___     
 G  R0000000
 G  R0000001
 G  R0000002
 G  R0000003
 L  R0000004
 L  R0000005
 L  R0000006
 L  R0000007
COLUMNS
    C(BEEF)   __OBJ___       3.1899999999999999
    C(BEEF)   R0000000  60
    C(BEEF)   R0000001  20
    C(BEEF)   R0000002  10
    C(BEEF)   R0000003  15
    C(BEEF)   R0000004  60
    C(BEEF)   R0000005  20
    C(BEEF)   R0000006  10
    C(BEEF)   R0000007  15
    C(CHK)    __OBJ___       2.5899999999999999
    C(CHK)    R0000000  8
    C(CHK)    R0000002  20
    C(CHK)    R0000003  20
    C(CHK)    R0000004  8
    C(CHK)    R0000006  20
    C(CHK)    R0000007  20
    C(FISH)   __OBJ___       2.29
    C(FISH)   R0000000  8
    C(FISH)   R0000001  10
    C(FISH)   R0000002  15
    C(FISH)   R0000003  10
    C(FISH)   R0000004  8
    C(FISH)   R0000005  10
    C(FISH)   R0000006  15
    C(FISH)   R0000007  10
    C(HAM)    __OBJ___       2.8900000000000001
    C(HAM)    R0000000  40
    C(HAM)    R0000001  40
    C(HAM)    R0000002  35
    C(HAM)    R0000003  10
    C(HAM)    R0000004  40
    C(HAM)    R0000005  40
    C(HAM)    R0000006  35
    C(HAM)    R0000007  10
    C(MCH)    __OBJ___       1.8899999999999999
    C(MCH)    R0000000  15
    C(MCH)    R0000001  35
    C(MCH)    R0000002  15
    C(MCH)    R0000003  15
    C(MCH)    R0000004  15
    C(MCH)    R0000005  35
    C(MCH)    R0000006  15
    C(MCH)    R0000007  15
    C(MTL)    __OBJ___       1.99
    C(MTL)    R0000000  70
    C(MTL)    R0000001  30
    C(MTL)    R0000002  15
    C(MTL)    R0000003  15
    C(MTL)    R0000004  70
    C(MTL)    R0000005  30
    C(MTL)    R0000006  15
    C(MTL)    R0000007  15
    C(SPG)    __OBJ___       1.99
    C(SPG)    R0000000  25
    C(SPG)    R0000001  50
    C(SPG)    R0000002  25
    C(SPG)    R0000003  15
    C(SPG)    R0000004  25
    C(SPG)    R0000005  50
    C(SPG)    R0000006  25
    C(SPG)    R0000007  15
    C(TUR)    __OBJ___       2.4900000000000002
    C(TUR)    R0000000  60
    C(TUR)    R0000001  20
    C(TUR)    R0000002  15
    C(TUR)    R0000003  10
    C(TUR)    R0000004  60
    C(TUR)    R0000005  20
    C(TUR)    R0000006  15
    C(TUR)    R0000007  10
RHS
    RHS       R0000000  700
    RHS       R0000001  700
    RHS       R0000002  700
    RHS       R0000003  700
    RHS       R0000004  10000
    RHS       R0000005  10000
    RHS       R0000006  10000
    RHS       R0000007  10000
ENDATA
