COPT Learning/diet problem/diet_advanced.sol
# Objective value 88.199999999999989
C(BEEF)   0
C(CHK)    0
C(FISH)   0
C(HAM)    0
C(MCH)    46.666666666666664
C(MTL)    0
C(SPG)    0
C(TUR)    0
